# Simulation of crosslinking

print "PROB ${prob} VSEED ${vseed} BSEED ${bseed}"

# Setting a 3D periodic system with lj units
units lj
dimension 3
atom_style bond
boundary p p p

# Create the lattice on which initial atoms will be placed
lattice sc 0.85
region box_region block 0 10 0 10 0 10

create_box 1 box_region extra/special/per/atom 336 extra/bond/per/atom 8 bond/types 1
create_atoms 1 box
mass 1 1.0

velocity all create 1. ${vseed}

pair_style lj/cut 1.13
pair_coeff 1 1 1.0 1.0 1.122462048309373
pair_modify shift yes

bond_style table spline 2000
bond_coeff 1 ../mirrorlj.txt MIRROR_LJ
special_bonds lj 1 1 1 extra 336

neighbor 0.3 bin
neigh_modify delay 0 every 1 check yes

fix 1 all nvt temp 1. 1. 10.

compute 1 all property/atom nbonds
compute 2 all reduce sum c_1
compute 3 all reduce max c_1
thermo_style custom time etotal temp ke evdwl ebond pe press density c_2 c_3
thermo 100

run 10000

dump hd1 all h5md 100 dump_3d.h5 position velocity force every 3
write_dump all h5md dump_3d.h5 file_from hd1 species

unfix 1
fix 1 all nve
fix fbc all bond/create 100 1 1 1. 1 prob ${prob} ${bseed} iparam 8 1 jparam 8 1

run 20000

